webassembly/ejemplos_dzn/folder6_json_78.dzn
TERM = { '.', 'in_1', 'local_0', 'local_1', 'in_2', 'in_4', 'in_3', 's(1)', 's(0)', 'in_0'};
null = '.';
s = 6;
n = 10;
ndeps = 3;
max_registers_sz = 4;
NR = 1;
registers = [|'local_0', 'in_2'|];
dependencies = [|'i32.store_0', 'i32.load16_u_3', |'i32.load16_u_3', 'i32.store_4', |'i32.store_4', 'i32.load_5'|];
GET_ENUM = { GET1, GET2, GET3, GET4, GET5};
SET_ENUM = { SET1, SET2, SET3, SET4, SET5};
TEE_ENUM = { TEE1, TEE2, TEE3, TEE4, TEE5};
N = 5;
OP = { 'i32.store_0', 'i32.load16_u_3', 'i32.store_4', 'i32.load_5', 'local.get_0' };
in_ops = [2, 1, 2, 1, 0 ];
out_ops = [0, 1, 0, 1, 1 ];
in1 = ['in_0', 'local_1', 's(0)', 'in_4', '.' ];
in2 = ['in_1', '.', 'in_3', '.', '.' ];
in3 = ['.', '.', '.', '.', '.' ];
out1 = ['.', 's(0)', '.', 's(1)', 'local_1' ];
out2 = ['.', '.', '.', '.', '.' ];
out3 = ['.', '.', '.', '.', '.' ];
comm = [false, false, false, false, false ];
gas = [1, 1, 1, 1, 1 ];
sz = [1, 1, 1, 1, 1 ];
stor = [true, false, true, false, false ];
lb = [ 1, 1, 1, 1, 1 ];
ub = [ 6, 6, 6, 6, 6 ];
startstack = [ 'in_0', 'in_1', 'in_2', 'in_3', 'in_4', null, null, null, null, null ];
endstack = [ 's(1)', null, null, null, null, null, null, null, null, null ];
